
===== New CPLEX run =====
Instance: /home/yorig/tuner/mpils-tests/instances/miplib/medium-1/momentum1.mps
Config: /scratch/yorig/mpils-results-grid-ticks-10000/medium-1/16proc/seed-5/6_momentum1_seed-5_20260425_215516/iterated_local_search/run_2_worker_8/ils_config_12489686340260809862.prm
========================

Selected objective sense:  MINIMIZE
Selected objective  name:  MINIMIZE
Selected RHS        name:  rhs
Selected bound      name:  bnd
Version identifier: 22.1.2.0 | 2024-11-26 | 0edbb82fd
CPXPARAM_Threads                                 8
CPXPARAM_Parallel                                1
CPXPARAM_MIP_Strategy_Branch                     1
CPXPARAM_MIP_Cuts_Cliques                        3
CPXPARAM_MIP_Cuts_FlowCovers                     -1
CPXPARAM_MIP_Cuts_Implied                        1
CPXPARAM_MIP_Cuts_GUBCovers                      2
CPXPARAM_MIP_Limits_GomoryCand                   50
CPXPARAM_MIP_Cuts_PathCut                        1
CPXPARAM_MIP_Cuts_MIRCut                         -1
CPXPARAM_MIP_Cuts_Disjunctive                    3
CPXPARAM_Emphasis_MIP                            2
CPXPARAM_DetTimeLimit                            10000
Tried aggregator 3 times.
MIP Presolve eliminated 30810 rows and 1362 columns.
MIP Presolve modified 22293 coefficients.
Aggregator did 232 substitutions.
Reduced MIP has 11638 rows, 3580 columns, and 46688 nonzeros.
Reduced MIP has 1625 binaries, 0 generals, 0 SOSs, and 0 indicators.
Presolve time = 0.10 sec. (139.58 ticks)
Found incumbent of value 533875.101733 after 0.12 sec. (154.72 ticks)
Probing fixed 392 vars, tightened 1078 bounds.
Probing changed sense of 113 constraints.
Probing time = 0.08 sec. (90.30 ticks)
Cover probing fixed 0 vars, tightened 267 bounds.
Tried aggregator 2 times.
MIP Presolve eliminated 3295 rows and 847 columns.
MIP Presolve modified 7082 coefficients.
Aggregator did 11 substitutions.
Reduced MIP has 8332 rows, 2722 columns, and 31418 nonzeros.
Reduced MIP has 1168 binaries, 0 generals, 0 SOSs, and 0 indicators.
Presolve time = 0.04 sec. (44.43 ticks)
Probing fixed 1 vars, tightened 256 bounds.
Probing time = 0.05 sec. (44.20 ticks)
Cover probing fixed 0 vars, tightened 190 bounds.
Tried aggregator 1 time.
Detecting symmetries...
MIP Presolve eliminated 26 rows and 2 columns.
MIP Presolve modified 5059 coefficients.
Reduced MIP has 8306 rows, 2720 columns, and 31355 nonzeros.
Reduced MIP has 1167 binaries, 0 generals, 0 SOSs, and 0 indicators.
Presolve time = 0.02 sec. (22.06 ticks)
Probing fixed 0 vars, tightened 90 bounds.
Probing time = 0.04 sec. (40.55 ticks)
Cover probing fixed 0 vars, tightened 69 bounds.
Clique table members: 18692.
MIP emphasis: optimality.
MIP search method: dynamic search.
Parallel mode: deterministic, using up to 8 threads.
Root relaxation solution time = 0.11 sec. (144.31 ticks)

        Nodes                                         Cuts/
   Node  Left     Objective  IInf  Best Integer    Best Bound    ItCnt     Gap

*     0+    0                       533875.1017    44880.8652            91.59%
*     0+    0                       533847.9795    44880.8652            91.59%
*     0+    0                       333826.8649    44880.8652            86.56%
*     0+    0                       333809.0666    44880.8652            86.55%
      0     0    79213.0345   216   333809.0666    79213.0345     1531   76.27%

GUB cover cuts applied:  0
Clique cuts applied:  0
Implied bound cuts applied:  0
Flow path cuts applied:  0
Disjunctive cuts applied:  0
Cone linearizations applied:  0

Root node processing (before b&c):
  Real time             =    8.52 sec. (10050.38 ticks)
Parallel b&c, 8 threads:
  Real time             =    0.00 sec. (0.00 ticks)
  Sync time (average)   =    0.00 sec.
  Wait time (average)   =    0.00 sec.
                          ------------
Total (root+branch&cut) =    8.52 sec. (10050.38 ticks)
Gap: 76.27%
Upper bound: 333809
Lower bound: 79213
End of CPLEX run. Time: 8.52716 seconds

===== New CPLEX run =====
Instance: /home/yorig/tuner/mpils-tests/instances/miplib/medium-1/momentum1.mps
Config: /scratch/yorig/mpils-results-grid-ticks-10000/medium-1/16proc/seed-5/6_momentum1_seed-5_20260425_215516/iterated_local_search/run_2_worker_8/ils_config_11110584247187697720.prm
========================

Selected objective sense:  MINIMIZE
Selected objective  name:  MINIMIZE
Selected RHS        name:  rhs
Selected bound      name:  bnd
Version identifier: 22.1.2.0 | 2024-11-26 | 0edbb82fd
CPXPARAM_Threads                                 8
CPXPARAM_Parallel                                1
CPXPARAM_MIP_Strategy_Branch                     1
CPXPARAM_MIP_Cuts_Cliques                        3
CPXPARAM_MIP_Cuts_FlowCovers                     -1
CPXPARAM_MIP_Cuts_Implied                        1
CPXPARAM_MIP_Cuts_GUBCovers                      2
CPXPARAM_MIP_Limits_GomoryCand                   50
CPXPARAM_MIP_Cuts_PathCut                        1
CPXPARAM_MIP_Cuts_MIRCut                         -1
CPXPARAM_MIP_Cuts_Disjunctive                    -1
CPXPARAM_Emphasis_MIP                            2
CPXPARAM_DetTimeLimit                            10000
Tried aggregator 3 times.
MIP Presolve eliminated 30810 rows and 1362 columns.
MIP Presolve modified 22293 coefficients.
Aggregator did 232 substitutions.
Reduced MIP has 11638 rows, 3580 columns, and 46688 nonzeros.
Reduced MIP has 1625 binaries, 0 generals, 0 SOSs, and 0 indicators.
Presolve time = 0.10 sec. (139.58 ticks)
Found incumbent of value 533875.101733 after 0.12 sec. (154.72 ticks)
Probing fixed 392 vars, tightened 1078 bounds.
Probing changed sense of 113 constraints.
Probing time = 0.08 sec. (90.30 ticks)
Cover probing fixed 0 vars, tightened 267 bounds.
Tried aggregator 2 times.
MIP Presolve eliminated 3295 rows and 847 columns.
MIP Presolve modified 7082 coefficients.
Aggregator did 11 substitutions.
Reduced MIP has 8332 rows, 2722 columns, and 31418 nonzeros.
Reduced MIP has 1168 binaries, 0 generals, 0 SOSs, and 0 indicators.
Presolve time = 0.04 sec. (44.43 ticks)
Probing fixed 1 vars, tightened 256 bounds.
Probing time = 0.05 sec. (44.20 ticks)
Cover probing fixed 0 vars, tightened 190 bounds.
Tried aggregator 1 time.
Detecting symmetries...
MIP Presolve eliminated 26 rows and 2 columns.
MIP Presolve modified 5059 coefficients.
Reduced MIP has 8306 rows, 2720 columns, and 31355 nonzeros.
Reduced MIP has 1167 binaries, 0 generals, 0 SOSs, and 0 indicators.
Presolve time = 0.02 sec. (22.06 ticks)
Probing fixed 0 vars, tightened 90 bounds.
Probing time = 0.05 sec. (40.55 ticks)
Cover probing fixed 0 vars, tightened 69 bounds.
Clique table members: 18692.
MIP emphasis: optimality.
MIP search method: dynamic search.
Parallel mode: deterministic, using up to 8 threads.
Root relaxation solution time = 0.12 sec. (144.31 ticks)

        Nodes                                         Cuts/
   Node  Left     Objective  IInf  Best Integer    Best Bound    ItCnt     Gap

*     0+    0                       533875.1017    44880.8652            91.59%
*     0+    0                       533847.9795    44880.8652            91.59%
*     0+    0                       333826.8649    44880.8652            86.56%
*     0+    0                       333809.0666    44880.8652            86.55%
      0     0    79213.0345   216   333809.0666    79213.0345     1531   76.27%
      0     0    96253.3510   283   333809.0666     Cuts: 108     2006   71.17%
      0     0    96254.7636   245   333809.0666      Cuts: 31     2090   71.16%
      0     0    96254.7834   244   333809.0666   ZeroHalf: 3     2095   71.16%
*     0+    0                       333794.7467    96254.7834            71.16%
      0     0  -1.00000e+75     0   333794.7467    96254.7834     2095   71.16%
      0     0    96254.8067   244   333794.7467   ZeroHalf: 2     2102   71.16%
*     0+    0                       314572.3395    96254.8067            69.40%
*     0+    0                       314572.3394    96254.8120            69.40%
      0     0  -1.00000e+75     0   314572.3394    96254.8120     2102   69.40%
Detecting symmetries...
      0     2    96254.8067   244   314572.3394    96254.8120     2102   69.40%
Elapsed time = 2.12 sec. (3299.49 ticks, tree = 0.02 MB, solutions = 7)
*    21+    6                       314557.9616    96262.3626            69.40%
     21     8    96265.9589   228   314557.9616    96262.3626     2661   69.40%
*    22+    4                       308160.2560    96262.3626            68.76%
*    27+    7                       308159.0991    96262.3626            68.76%
     55    49   111745.8239   116   308159.0991    96266.0347     6200   68.76%
     74    65   109101.4826   154   308159.0991    96266.5670    12823   68.76%
    106    82   109110.3752   106   308159.0991    96266.5670    19590   68.76%
    121    88    96291.1839   209   308159.0991    96266.5670    25324   68.76%
    135    90   109190.5026   197   308159.0991    96266.5670    28458   68.76%
    147   105    96371.5078   203   308159.0991    96266.5670    34942   68.76%
    159   109   110695.6428   210   308159.0991    96266.5670    37551   68.76%
    180   127   134831.4056   100   308159.0991    96266.5670    41868   68.76%
    241   157   134856.3918   110   308159.0991    96266.5670    51953   68.76%
Elapsed time = 4.30 sec. (6666.67 ticks, tree = 0.21 MB, solutions = 11)
    297   178   109211.5631   177   308159.0991    96266.5670    65185   68.76%
    339   231   141265.3481    62   308159.0991    96273.0989    86170   68.76%
    385   255    infeasible         308159.0991    96273.0989   100104   68.76%

GUB cover cuts applied:  0
Clique cuts applied:  7
Implied bound cuts applied:  3
Flow path cuts applied:  0
Zero-half cuts applied:  20
Gomory fractional cuts applied:  4

Root node processing (before b&c):
  Real time             =    2.10 sec. (3278.63 ticks)
Parallel b&c, 8 threads:
  Real time             =    4.22 sec. (6734.64 ticks)
  Sync time (average)   =    0.56 sec.
  Wait time (average)   =    0.00 sec.
                          ------------
Total (root+branch&cut) =    6.32 sec. (10013.27 ticks)
Gap: 68.76%
Upper bound: 308159
Lower bound: 96273.1
End of CPLEX run. Time: 6.31839 seconds

===== New CPLEX run =====
Instance: /home/yorig/tuner/mpils-tests/instances/miplib/medium-1/momentum1.mps
Config: /scratch/yorig/mpils-results-grid-ticks-10000/medium-1/16proc/seed-5/6_momentum1_seed-5_20260425_215516/iterated_local_search/run_2_worker_8/ils_config_14547777804004590583.prm
========================

Selected objective sense:  MINIMIZE
Selected objective  name:  MINIMIZE
Selected RHS        name:  rhs
Selected bound      name:  bnd
Version identifier: 22.1.2.0 | 2024-11-26 | 0edbb82fd
CPXPARAM_Threads                                 8
CPXPARAM_Parallel                                1
CPXPARAM_MIP_Cuts_Cliques                        3
CPXPARAM_MIP_Cuts_FlowCovers                     -1
CPXPARAM_MIP_Cuts_Implied                        1
CPXPARAM_MIP_Cuts_GUBCovers                      2
CPXPARAM_MIP_Limits_GomoryCand                   50
CPXPARAM_MIP_Cuts_PathCut                        1
CPXPARAM_MIP_Cuts_MIRCut                         -1
CPXPARAM_MIP_Cuts_Disjunctive                    -1
CPXPARAM_Emphasis_MIP                            2
CPXPARAM_DetTimeLimit                            10000
Tried aggregator 3 times.
MIP Presolve eliminated 30810 rows and 1362 columns.
MIP Presolve modified 22293 coefficients.
Aggregator did 232 substitutions.
Reduced MIP has 11638 rows, 3580 columns, and 46688 nonzeros.
Reduced MIP has 1625 binaries, 0 generals, 0 SOSs, and 0 indicators.
Presolve time = 0.10 sec. (139.58 ticks)
Found incumbent of value 533875.101733 after 0.12 sec. (154.72 ticks)
Probing fixed 392 vars, tightened 1078 bounds.
Probing changed sense of 113 constraints.
Probing time = 0.08 sec. (90.30 ticks)
Cover probing fixed 0 vars, tightened 267 bounds.
Tried aggregator 2 times.
MIP Presolve eliminated 3295 rows and 847 columns.
MIP Presolve modified 7082 coefficients.
Aggregator did 11 substitutions.
Reduced MIP has 8332 rows, 2722 columns, and 31418 nonzeros.
Reduced MIP has 1168 binaries, 0 generals, 0 SOSs, and 0 indicators.
Presolve time = 0.04 sec. (44.43 ticks)
Probing fixed 1 vars, tightened 256 bounds.
Probing time = 0.04 sec. (44.20 ticks)
Cover probing fixed 0 vars, tightened 190 bounds.
Tried aggregator 1 time.
Detecting symmetries...
MIP Presolve eliminated 26 rows and 2 columns.
MIP Presolve modified 5059 coefficients.
Reduced MIP has 8306 rows, 2720 columns, and 31355 nonzeros.
Reduced MIP has 1167 binaries, 0 generals, 0 SOSs, and 0 indicators.
Presolve time = 0.02 sec. (22.06 ticks)
Probing fixed 0 vars, tightened 90 bounds.
Probing time = 0.05 sec. (40.55 ticks)
Cover probing fixed 0 vars, tightened 69 bounds.
Clique table members: 18692.
MIP emphasis: optimality.
MIP search method: dynamic search.
Parallel mode: deterministic, using up to 8 threads.
Root relaxation solution time = 0.12 sec. (144.31 ticks)

        Nodes                                         Cuts/
   Node  Left     Objective  IInf  Best Integer    Best Bound    ItCnt     Gap

*     0+    0                       533875.1017    44880.8652            91.59%
*     0+    0                       533847.9795    44880.8652            91.59%
*     0+    0                       333826.8649    44880.8652            86.56%
*     0+    0                       333809.0666    44880.8652            86.55%
      0     0    79213.0345   216   333809.0666    79213.0345     1531   76.27%
      0     0    96253.3510   283   333809.0666     Cuts: 108     2006   71.17%
      0     0    96254.7636   245   333809.0666      Cuts: 31     2090   71.16%
      0     0    96254.7834   244   333809.0666   ZeroHalf: 3     2095   71.16%
*     0+    0                       333794.7467    96254.7834            71.16%
      0     0  -1.00000e+75     0   333794.7467    96254.7834     2095   71.16%
      0     0    96254.8067   244   333794.7467   ZeroHalf: 2     2102   71.16%
*     0+    0                       314572.3395    96254.8067            69.40%
*     0+    0                       314572.3394    96254.8120            69.40%
      0     0  -1.00000e+75     0   314572.3394    96254.8120     2102   69.40%
Detecting symmetries...
      0     2    96254.8067   244   314572.3394    96254.8120     2102   69.40%
Elapsed time = 2.09 sec. (3299.49 ticks, tree = 0.02 MB, solutions = 7)
     18     8    96270.1185   236   314572.3394    96262.3626     2956   69.40%
*    29+    4                       314558.7551    96264.3823            69.40%
     41     9   100997.9191   219   314558.7551    96264.3823     3669   69.40%
     64    42   102815.0756   209   314558.7551    96266.0347     9390   69.40%
    116   100   102726.5239   161   314558.7551    96266.0347    20214   69.40%
    179   116   109152.5750   171   314558.7551    96266.0347    21479   69.40%
    211   179   102949.9194   118   314558.7551    96266.0347    27194   69.40%
    251   209   102863.8352   182   314558.7551    96266.0347    31402   69.40%
    264   230   115582.7696    91   314558.7551    96266.0347    35326   69.40%
    282   253   110275.4965   158   314558.7551    96266.0347    40409   69.40%
    416   305    96464.1041   187   314558.7551    96272.8667    50705   69.39%
Elapsed time = 4.16 sec. (6531.89 ticks, tree = 1.18 MB, solutions = 9)
*   482+  308                       314558.7549    96272.8667            69.39%
    604   442        cutoff         314558.7549    96272.8667    64357   69.39%
    772   563        cutoff         314558.7549    96272.8667    87277   69.39%
    927   663   103453.8000   164   314558.7549    96272.8667    98953   69.39%

GUB cover cuts applied:  0
Clique cuts applied:  7
Implied bound cuts applied:  3
Flow path cuts applied:  0
Zero-half cuts applied:  21
Gomory fractional cuts applied:  4

Root node processing (before b&c):
  Real time             =    2.07 sec. (3278.59 ticks)
Parallel b&c, 8 threads:
  Real time             =    4.18 sec. (6743.08 ticks)
  Sync time (average)   =    0.50 sec.
  Wait time (average)   =    0.00 sec.
                          ------------
Total (root+branch&cut) =    6.25 sec. (10021.68 ticks)
Gap: 69.39%
Upper bound: 314559
Lower bound: 96272.9
End of CPLEX run. Time: 6.2482 seconds

===== New CPLEX run =====
Instance: /home/yorig/tuner/mpils-tests/instances/miplib/medium-1/momentum1.mps
Config: /scratch/yorig/mpils-results-grid-ticks-10000/medium-1/16proc/seed-5/6_momentum1_seed-5_20260425_215516/iterated_local_search/run_2_worker_8/ils_config_14164838322013580777.prm
========================

Selected objective sense:  MINIMIZE
Selected objective  name:  MINIMIZE
Selected RHS        name:  rhs
Selected bound      name:  bnd
Version identifier: 22.1.2.0 | 2024-11-26 | 0edbb82fd
CPXPARAM_Threads                                 8
CPXPARAM_Parallel                                1
CPXPARAM_MIP_Strategy_Branch                     1
CPXPARAM_MIP_Cuts_Cliques                        3
CPXPARAM_MIP_Cuts_FlowCovers                     -1
CPXPARAM_MIP_Cuts_Implied                        1
CPXPARAM_MIP_Cuts_GUBCovers                      2
CPXPARAM_MIP_Cuts_PathCut                        1
CPXPARAM_MIP_Cuts_MIRCut                         -1
CPXPARAM_MIP_Cuts_Disjunctive                    -1
CPXPARAM_Emphasis_MIP                            2
CPXPARAM_DetTimeLimit                            10000
Tried aggregator 3 times.
MIP Presolve eliminated 30810 rows and 1362 columns.
MIP Presolve modified 22293 coefficients.
Aggregator did 232 substitutions.
Reduced MIP has 11638 rows, 3580 columns, and 46688 nonzeros.
Reduced MIP has 1625 binaries, 0 generals, 0 SOSs, and 0 indicators.
Presolve time = 0.10 sec. (139.58 ticks)
Found incumbent of value 533875.101733 after 0.12 sec. (154.72 ticks)
Probing fixed 392 vars, tightened 1078 bounds.
Probing changed sense of 113 constraints.
Probing time = 0.08 sec. (90.30 ticks)
Cover probing fixed 0 vars, tightened 267 bounds.
Tried aggregator 2 times.
MIP Presolve eliminated 3295 rows and 847 columns.
MIP Presolve modified 7082 coefficients.
Aggregator did 11 substitutions.
Reduced MIP has 8332 rows, 2722 columns, and 31418 nonzeros.
Reduced MIP has 1168 binaries, 0 generals, 0 SOSs, and 0 indicators.
Presolve time = 0.04 sec. (44.43 ticks)
Probing fixed 1 vars, tightened 256 bounds.
Probing time = 0.05 sec. (44.20 ticks)
Cover probing fixed 0 vars, tightened 190 bounds.
Tried aggregator 1 time.
Detecting symmetries...
MIP Presolve eliminated 26 rows and 2 columns.
MIP Presolve modified 5059 coefficients.
Reduced MIP has 8306 rows, 2720 columns, and 31355 nonzeros.
Reduced MIP has 1167 binaries, 0 generals, 0 SOSs, and 0 indicators.
Presolve time = 0.02 sec. (22.06 ticks)
Probing fixed 0 vars, tightened 90 bounds.
Probing time = 0.04 sec. (40.55 ticks)
Cover probing fixed 0 vars, tightened 69 bounds.
Clique table members: 18692.
MIP emphasis: optimality.
MIP search method: dynamic search.
Parallel mode: deterministic, using up to 8 threads.
Root relaxation solution time = 0.12 sec. (144.31 ticks)

        Nodes                                         Cuts/
   Node  Left     Objective  IInf  Best Integer    Best Bound    ItCnt     Gap

*     0+    0                       533875.1017    44880.8652            91.59%
*     0+    0                       533847.9795    44880.8652            91.59%
*     0+    0                       333826.8649    44880.8652            86.56%
*     0+    0                       333809.0666    44880.8652            86.55%
      0     0    79213.0345   216   333809.0666    79213.0345     1531   76.27%
      0     0    96253.3512   283   333809.0666     Cuts: 130     2011   71.17%
      0     0    96254.7636   245   333809.0666      Cuts: 33     2118   71.16%
      0     0    96254.7775   246   333809.0666   ZeroHalf: 3     2124   71.16%
*     0+    0                       314572.3395    96254.7775            69.40%
      0     0  -1.00000e+75     0   314572.3395    96254.7775     2124   69.40%
      0     0    96254.8120   244   314572.3395   ZeroHalf: 3     2134   69.40%
*     0+    0                       314560.0515    96254.8120            69.40%
      0     0  -1.00000e+75     0   314560.0515    96254.8120     2134   69.40%
Detecting symmetries...
      0     2    96254.8120   244   314560.0515    96254.8120     2134   69.40%
Elapsed time = 2.15 sec. (3298.77 ticks, tree = 0.02 MB, solutions = 6)
     22    16    96301.3849   212   314560.0515    96262.3869     3986   69.40%
*    23+    5                       301724.1153    96262.3869            68.10%
     65    58   115526.2772    89   301724.1153    96262.3869     7667   68.10%
     79    65        cutoff         301724.1153    96262.3869     8741   68.10%
     99    83   102713.8268   163   301724.1153    96262.3869    16695   68.10%
    136   109   109686.2286   199   301724.1153    96262.3869    22596   68.10%
    163   109        cutoff         301724.1153    96262.3869    21931   68.10%
    195   134   104933.3043   244   301724.1153    96262.3869    28621   68.10%
    217   150   102821.0482   179   301724.1153    96262.3869    34016   68.10%
    244   167   103008.4584   143   301724.1153    96262.3869    41435   68.10%
    303   200    96358.7801   203   301724.1153    96262.3869    54666   68.10%
Elapsed time = 4.25 sec. (6709.29 ticks, tree = 1.03 MB, solutions = 8)
    338   241    96353.1006   252   301724.1153    96262.3869    73822   68.10%
    389   219        cutoff         301724.1153    96278.0355    63871   68.09%
    489   319   109288.8137   190   301724.1153    96278.0355    98039   68.09%

GUB cover cuts applied:  0
Clique cuts applied:  7
Cover cuts applied:  1
Implied bound cuts applied:  3
Flow path cuts applied:  0
Zero-half cuts applied:  22
Gomory fractional cuts applied:  17

Root node processing (before b&c):
  Real time             =    2.14 sec. (3276.90 ticks)
Parallel b&c, 8 threads:
  Real time             =    4.04 sec. (6743.90 ticks)
  Sync time (average)   =    0.41 sec.
  Wait time (average)   =    0.00 sec.
                          ------------
Total (root+branch&cut) =    6.17 sec. (10020.80 ticks)
Gap: 68.09%
Upper bound: 301724
Lower bound: 96278
End of CPLEX run. Time: 6.17689 seconds

===== New CPLEX run =====
Instance: /home/yorig/tuner/mpils-tests/instances/miplib/medium-1/momentum1.mps
Config: /scratch/yorig/mpils-results-grid-ticks-10000/medium-1/16proc/seed-5/6_momentum1_seed-5_20260425_215516/iterated_local_search/run_2_worker_8/ils_config_18288300431528617428.prm
========================

Selected objective sense:  MINIMIZE
Selected objective  name:  MINIMIZE
Selected RHS        name:  rhs
Selected bound      name:  bnd
Version identifier: 22.1.2.0 | 2024-11-26 | 0edbb82fd
CPXPARAM_Threads                                 8
CPXPARAM_Parallel                                1
CPXPARAM_MIP_Strategy_Branch                     1
CPXPARAM_MIP_Cuts_Cliques                        3
CPXPARAM_MIP_Cuts_FlowCovers                     -1
CPXPARAM_MIP_Cuts_Implied                        1
CPXPARAM_MIP_Cuts_GUBCovers                      2
CPXPARAM_MIP_Cuts_PathCut                        1
CPXPARAM_MIP_Cuts_MIRCut                         -1
CPXPARAM_MIP_Cuts_Disjunctive                    -1
CPXPARAM_Emphasis_MIP                            2
CPXPARAM_MIP_Strategy_Dive                       3
CPXPARAM_DetTimeLimit                            10000
Tried aggregator 3 times.
MIP Presolve eliminated 30810 rows and 1362 columns.
MIP Presolve modified 22293 coefficients.
Aggregator did 232 substitutions.
Reduced MIP has 11638 rows, 3580 columns, and 46688 nonzeros.
Reduced MIP has 1625 binaries, 0 generals, 0 SOSs, and 0 indicators.
Presolve time = 0.10 sec. (139.58 ticks)
Found incumbent of value 533875.101733 after 0.12 sec. (154.72 ticks)
Probing fixed 392 vars, tightened 1078 bounds.
Probing changed sense of 113 constraints.
Probing time = 0.08 sec. (90.30 ticks)
Cover probing fixed 0 vars, tightened 267 bounds.
Tried aggregator 2 times.
MIP Presolve eliminated 3295 rows and 847 columns.
MIP Presolve modified 7082 coefficients.
Aggregator did 11 substitutions.
Reduced MIP has 8332 rows, 2722 columns, and 31418 nonzeros.
Reduced MIP has 1168 binaries, 0 generals, 0 SOSs, and 0 indicators.
Presolve time = 0.04 sec. (44.43 ticks)
Probing fixed 1 vars, tightened 256 bounds.
Probing time = 0.05 sec. (44.20 ticks)
Cover probing fixed 0 vars, tightened 190 bounds.
Tried aggregator 1 time.
Detecting symmetries...
MIP Presolve eliminated 26 rows and 2 columns.
MIP Presolve modified 5059 coefficients.
Reduced MIP has 8306 rows, 2720 columns, and 31355 nonzeros.
Reduced MIP has 1167 binaries, 0 generals, 0 SOSs, and 0 indicators.
Presolve time = 0.02 sec. (22.06 ticks)
Probing fixed 0 vars, tightened 90 bounds.
Probing time = 0.05 sec. (40.55 ticks)
Cover probing fixed 0 vars, tightened 69 bounds.
Clique table members: 18692.
MIP emphasis: optimality.
MIP search method: dynamic search.
Parallel mode: deterministic, using up to 8 threads.
Root relaxation solution time = 0.12 sec. (144.31 ticks)

        Nodes                                         Cuts/
   Node  Left     Objective  IInf  Best Integer    Best Bound    ItCnt     Gap

*     0+    0                       533875.1017    44880.8652            91.59%
*     0+    0                       533847.9795    44880.8652            91.59%
*     0+    0                       333826.8649    44880.8652            86.56%
*     0+    0                       333809.0666    44880.8652            86.55%
      0     0    79213.0345   216   333809.0666    79213.0345     1531   76.27%
      0     0    96253.3512   283   333809.0666     Cuts: 130     2011   71.17%
      0     0    96254.7636   245   333809.0666      Cuts: 33     2118   71.16%
      0     0    96254.7775   246   333809.0666   ZeroHalf: 3     2124   71.16%
*     0+    0                       314572.3395    96254.7775            69.40%
      0     0  -1.00000e+75     0   314572.3395    96254.7775     2124   69.40%
      0     0    96254.8120   244   314572.3395   ZeroHalf: 3     2134   69.40%
*     0+    0                       314560.0515    96254.8120            69.40%
      0     0  -1.00000e+75     0   314560.0515    96254.8120     2134   69.40%
Detecting symmetries...
      0     2    96254.8120   244   314560.0515    96254.8120     2134   69.40%
Elapsed time = 2.17 sec. (3298.77 ticks, tree = 0.02 MB, solutions = 6)
     22    16    96301.3849   212   314560.0515    96262.3869     3986   69.40%
*    23+    5                       301724.1153    96262.3869            68.10%
     65    58   115526.2772    89   301724.1153    96262.3869     7667   68.10%
     79    65        cutoff         301724.1153    96262.3869     8741   68.10%
     99    83   102713.8268   163   301724.1153    96262.3869    16695   68.10%
    136   109   109686.2286   199   301724.1153    96262.3869    22596   68.10%
    163   109        cutoff         301724.1153    96262.3869    21931   68.10%
    195   134   104933.3043   244   301724.1153    96262.3869    28621   68.10%
    217   150   102821.0482   179   301724.1153    96262.3869    34016   68.10%
    244   167   103008.4584   143   301724.1153    96262.3869    41435   68.10%
    303   200    96358.7801   203   301724.1153    96262.3869    54666   68.10%
Elapsed time = 4.25 sec. (6709.29 ticks, tree = 1.03 MB, solutions = 8)
    338   241    96353.1006   252   301724.1153    96262.3869    73822   68.10%
    389   219        cutoff         301724.1153    96278.0355    63871   68.09%
    489   319   109288.8137   190   301724.1153    96278.0355    98039   68.09%

GUB cover cuts applied:  0
Clique cuts applied:  7
Cover cuts applied:  1
Implied bound cuts applied:  3
Flow path cuts applied:  0
Zero-half cuts applied:  22
Gomory fractional cuts applied:  17

Root node processing (before b&c):
  Real time             =    2.15 sec. (3276.90 ticks)
Parallel b&c, 8 threads:
  Real time             =    4.01 sec. (6743.90 ticks)
  Sync time (average)   =    0.42 sec.
  Wait time (average)   =    0.00 sec.
                          ------------
Total (root+branch&cut) =    6.16 sec. (10020.80 ticks)
Gap: 68.09%
Upper bound: 301724
Lower bound: 96278
End of CPLEX run. Time: 6.1626 seconds

===== New CPLEX run =====
Instance: /home/yorig/tuner/mpils-tests/instances/miplib/medium-1/momentum1.mps
Config: /scratch/yorig/mpils-results-grid-ticks-10000/medium-1/16proc/seed-5/6_momentum1_seed-5_20260425_215516/iterated_local_search/run_2_worker_8/ils_config_11741993243872757068.prm
========================

Selected objective sense:  MINIMIZE
Selected objective  name:  MINIMIZE
Selected RHS        name:  rhs
Selected bound      name:  bnd
Version identifier: 22.1.2.0 | 2024-11-26 | 0edbb82fd
CPXPARAM_Threads                                 8
CPXPARAM_Parallel                                1
CPXPARAM_MIP_Strategy_Branch                     1
CPXPARAM_MIP_Cuts_Cliques                        3
CPXPARAM_MIP_Cuts_FlowCovers                     -1
CPXPARAM_MIP_Cuts_Implied                        2
CPXPARAM_MIP_Cuts_GUBCovers                      2
CPXPARAM_MIP_Cuts_PathCut                        1
CPXPARAM_MIP_Cuts_MIRCut                         -1
CPXPARAM_MIP_Cuts_Disjunctive                    -1
CPXPARAM_Emphasis_MIP                            2
CPXPARAM_DetTimeLimit                            10000
Tried aggregator 3 times.
MIP Presolve eliminated 30810 rows and 1362 columns.
MIP Presolve modified 22293 coefficients.
Aggregator did 232 substitutions.
Reduced MIP has 11638 rows, 3580 columns, and 46688 nonzeros.
Reduced MIP has 1625 binaries, 0 generals, 0 SOSs, and 0 indicators.
Presolve time = 0.10 sec. (139.58 ticks)
Found incumbent of value 533875.101733 after 0.12 sec. (154.72 ticks)
Probing fixed 392 vars, tightened 1078 bounds.
Probing changed sense of 113 constraints.
Probing time = 0.08 sec. (90.30 ticks)
Cover probing fixed 0 vars, tightened 267 bounds.
Tried aggregator 2 times.
MIP Presolve eliminated 3295 rows and 847 columns.
MIP Presolve modified 7082 coefficients.
Aggregator did 11 substitutions.
Reduced MIP has 8332 rows, 2722 columns, and 31418 nonzeros.
Reduced MIP has 1168 binaries, 0 generals, 0 SOSs, and 0 indicators.
Presolve time = 0.04 sec. (44.43 ticks)
Probing fixed 1 vars, tightened 256 bounds.
Probing time = 0.04 sec. (44.20 ticks)
Cover probing fixed 0 vars, tightened 190 bounds.
Tried aggregator 1 time.
Detecting symmetries...
MIP Presolve eliminated 26 rows and 2 columns.
MIP Presolve modified 5059 coefficients.
Reduced MIP has 8306 rows, 2720 columns, and 31355 nonzeros.
Reduced MIP has 1167 binaries, 0 generals, 0 SOSs, and 0 indicators.
Presolve time = 0.02 sec. (22.06 ticks)
Probing fixed 0 vars, tightened 90 bounds.
Probing time = 0.04 sec. (40.55 ticks)
Cover probing fixed 0 vars, tightened 69 bounds.
Clique table members: 18692.
MIP emphasis: optimality.
MIP search method: dynamic search.
Parallel mode: deterministic, using up to 8 threads.
Root relaxation solution time = 0.12 sec. (144.31 ticks)

        Nodes                                         Cuts/
   Node  Left     Objective  IInf  Best Integer    Best Bound    ItCnt     Gap

*     0+    0                       533875.1017    44880.8652            91.59%
*     0+    0                       533847.9795    44880.8652            91.59%
*     0+    0                       333826.8649    44880.8652            86.56%
*     0+    0                       333809.0666    44880.8652            86.55%
      0     0    79213.0345   216   333809.0666    79213.0345     1531   76.27%
      0     0    96253.3512   283   333809.0666     Cuts: 130     2011   71.17%
      0     0    96254.7636   245   333809.0666      Cuts: 33     2118   71.16%
      0     0    96254.7775   246   333809.0666   ZeroHalf: 3     2124   71.16%
*     0+    0                       314572.3395    96254.7775            69.40%
      0     0  -1.00000e+75     0   314572.3395    96254.7775     2124   69.40%
      0     0    96254.8120   244   314572.3395   ZeroHalf: 3     2134   69.40%
*     0+    0                       314560.0515    96254.8120            69.40%
      0     0  -1.00000e+75     0   314560.0515    96254.8120     2134   69.40%
Detecting symmetries...
      0     2    96254.8120   244   314560.0515    96254.8120     2134   69.40%
Elapsed time = 2.12 sec. (3298.77 ticks, tree = 0.02 MB, solutions = 6)
     20    16   102707.3395   198   314560.0515    96262.3646     3795   69.40%
*    27+    5                       301724.1153    96262.3646            68.10%
*    29+    6                       301724.1153    96262.3646            68.10%
     47    34   109083.1988   184   301724.1153    96262.3646     6816   68.10%
     86    79   109110.4267    77   301724.1153    96262.3646    10172   68.10%
    102    42        cutoff         301724.1153    96262.3646     9099   68.10%
    116    87        cutoff         301724.1153    96262.3646    17333   68.10%
    141   108    96467.8188   214   301724.1153    96262.3646    25313   68.10%
    163   118   109191.0651   190   301724.1153    96262.3646    27587   68.10%
    176    98        cutoff         301724.1153    96262.3646    23357   68.10%
    189   132   109097.4481   206   301724.1153    96262.3646    34651   68.10%
    237   156   115853.0265   205   301724.1153    96262.3646    45722   68.10%
Elapsed time = 4.19 sec. (6650.81 ticks, tree = 0.23 MB, solutions = 9)
    276   184   115631.7190   164   301724.1153    96262.3646    72547   68.10%
    380   243    96354.6683   177   301724.1153    96262.3646    82079   68.10%
*   482+  296                       301724.1152    96270.1571            68.09%
    508   341   102781.4421   190   301724.1152    96270.1571    97520   68.09%

GUB cover cuts applied:  0
Clique cuts applied:  7
Implied bound cuts applied:  9
Flow path cuts applied:  0
Zero-half cuts applied:  22
Gomory fractional cuts applied:  17

Root node processing (before b&c):
  Real time             =    2.10 sec. (3277.13 ticks)
Parallel b&c, 8 threads:
  Real time             =    4.04 sec. (6727.88 ticks)
  Sync time (average)   =    0.42 sec.
  Wait time (average)   =    0.00 sec.
                          ------------
Total (root+branch&cut) =    6.14 sec. (10005.01 ticks)
Gap: 68.09%
Upper bound: 301724
Lower bound: 96270.2
End of CPLEX run. Time: 6.1433 seconds
